n= 4
m= 50
1000
2000
2500
3000
137	12	4
290	16	4
256	6	2
168	7	7
454	5	5
91	36	9
143	28	7
29	6	2
386	12	6
467	8	2
314	5	5
366	12	4
169	36	9
389	18	9
217	21	7
340	20	5
142	2	1
168	32	8
159	4	4
415	27	9
381	9	9
405	3	1
247	9	9
209	24	8
263	6	6
344	1	1
179	18	6
141	6	6
261	12	4
261	6	2
110	9	9
533	9	3
66	2	1
505	10	5
131	28	7
530	12	3
590	4	1
110	1	1
451	20	5
599	6	6
251	3	3
406	8	4
184	36	9
153	8	4
103	36	9
514	27	9
199	8	8
210	4	2
409	14	7
575	12	3
